Cars = 1..200;
Options = 1..5;
Classes = 1..21;
sequenceMinCapacity = [0, 0, 0, 0, 0];
sequenceMaxCapacity = [1, 2, 1, 2, 1];
sequenceSize = [2, 3, 3, 5, 5];
numOrdered = [2, 2, 41, 4, 13, 51, 4, 12, 2, 3, 12, 4, 1, 1, 19, 13, 1, 2, 2, 5, 6];
classHasOption = [| true,  true, false,  true, false
                  |false, false, false,  true,  true
                  |false, false, false,  true, false
                  | true, false, false,  true, false
                  | true,  true, false, false, false
                  |false,  true, false, false, false
                  |false, false,  true,  true, false
                  |false, false, false, false,  true
                  | true,  true,  true, false, false
                  | true, false,  true, false, false
                  |false,  true, false,  true, false
                  | true, false, false, false,  true
                  | true, false,  true,  true, false
                  |false,  true,  true, false,  true
                  | true, false, false, false, false
                  |false, false,  true, false, false
                  | true,  true,  true,  true, false
                  | true,  true,  true, false,  true
                  |false,  true,  true,  true, false
                  |false,  true,  true, false, false
                  |false,  true, false, false,  true|];
optionOrdering = [4, 5, 1, 3, 2];
